 Code  3232
 Dimension, Fixed Cost
   100        3000
 Facility, Client, Transportation Cost
     1        1           4
     1       31           3
     1       35           0
     1       45           4
     1       46           0
     1       48           0
     1       55           3
     1       56           4
     1       57           0
     1       60           3
     1       76           2
     1       95           4
     2        4           3
     2       11           4
     2       20           0
     2       81           2
     3        2           1
     3       12           2
     3       32           1
     3       39           0
     3       50           3
     3       85           2
     3       98           3
     4       36           4
     4       43           2
     4       46           4
     4       58           2
     4       72           0
     4       75           4
     4       95           2
     5       30           1
     5       32           4
     5       35           2
     5       58           1
     5       63           3
     5       70           1
     5       71           0
     5       76           4
     5       91           1
     5       98           0
     6        1           0
     6        8           1
     6       14           3
     6       20           2
     6       29           0
     6       30           2
     6       33           4
     6       44           0
     6       46           4
     6       47           0
     6       61           2
     6       64           2
     6       96           1
     7        7           2
     7       10           3
     7       21           3
     7       45           4
     7       51           1
     7       55           1
     7       63           3
     7       75           2
     7       78           2
     7       86           2
     8       16           1
     8       17           1
     8       20           4
     8       37           4
     8       40           0
     8       64           4
     8       78           2
     8       80           2
     8       91           0
     9        6           4
     9       15           3
     9       18           2
     9       24           1
     9       28           2
     9       36           3
     9       41           0
     9       64           4
     9       65           1
     9       68           4
     9       70           3
     9       87           3
     9       88           2
     9       93           2
    10        6           4
    10       20           0
    10       21           2
    10       25           4
    10       37           3
    10       39           0
    10       46           2
    10       49           4
    10       63           4
    10       64           1
    10       70           2
    10       74           1
    10       85           0
    10       98           3
    10       99           2
    11        6           2
    11       19           1
    11       33           2
    11       41           3
    11       99           1
    12        9           2
    12       21           0
    12       30           3
    12       39           4
    12       67           4
    12       68           0
    12       87           3
    13       15           2
    13       29           3
    13       46           2
    13       53           3
    13       58           1
    13       75           1
    13       86           1
    13       94           1
    13       96           2
    14        5           3
    14        8           0
    14       21           1
    14       23           2
    14       24           4
    14       25           1
    14       68           0
    14       73           0
    14       75           1
    14       76           4
    14       88           3
    14       89           3
    15       17           2
    15       18           0
    15       41           3
    15       55           3
    15       60           3
    15       69           4
    15       78           0
    15       89           4
    15       92           1
    15      100           1
    16        1           1
    16       13           4
    16       17           2
    16       28           4
    16       38           1
    16       45           0
    16       52           2
    16       57           4
    16       74           3
    16       76           2
    17        9           1
    17       11           0
    17       20           1
    17       26           4
    17       36           0
    17       43           3
    17       51           3
    17       53           1
    17       63           1
    17       65           0
    17       66           2
    17       68           1
    17       77           3
    17       79           3
    17       89           4
    17       97           1
    17       99           4
    18       20           2
    18       35           4
    18       52           0
    18       58           4
    18       73           0
    18       77           1
    18       83           1
    18       85           3
    18       87           0
    18      100           1
    19        4           4
    19       17           0
    19       28           2
    19       30           3
    19       32           1
    19       33           1
    19       37           1
    19       38           2
    19       39           2
    19       48           3
    19       61           4
    19       62           0
    19       71           0
    19       90           2
    19       95           2
    20       15           0
    20       26           0
    20       44           0
    20       46           1
    20       47           4
    20       50           1
    20       51           0
    20       65           1
    20       67           3
    20       68           2
    20       70           3
    20       88           3
    21       10           0
    21       13           2
    21       14           0
    21       23           1
    21       30           2
    21       47           3
    21       62           4
    21       67           4
    21       72           1
    21       83           0
    21       84           0
    22       45           1
    22       50           2
    22       51           4
    22       55           1
    22       57           2
    23        4           2
    23       11           3
    23       25           0
    23       42           3
    23       45           4
    23       65           1
    23       86           2
    23       87           0
    23       91           3
    24        2           2
    24        3           2
    24        6           2
    24       27           3
    24       30           2
    24       33           3
    24       34           4
    24       40           4
    24       47           1
    24       65           4
    24       74           4
    24       84           2
    24       99           4
    25        2           0
    25       10           0
    25       17           1
    25       31           3
    25       38           0
    25       52           2
    25       61           3
    25       68           1
    25       80           4
    25       98           3
    25      100           1
    26        8           2
    26       34           3
    26       35           4
    26       41           3
    26       57           3
    26       80           1
    26       87           0
    27       36           2
    27       56           4
    27       68           3
    27       72           3
    27       74           0
    27       84           3
    27       92           2
    27       96           1
    28        2           2
    28        4           1
    28        7           1
    28       13           3
    28       26           2
    28       32           4
    28       40           1
    28       49           0
    28       53           0
    28       60           1
    28       65           1
    28       73           1
    28       85           1
    28       92           2
    29       15           4
    29       41           1
    29       42           4
    29       48           0
    29       49           2
    29       51           0
    29       54           3
    29       61           2
    29       71           3
    29       73           0
    29       79           3
    29       81           4
    29       96           4
    29      100           2
    30       27           4
    30       38           3
    30       40           0
    30       54           3
    30       58           4
    30       59           3
    30       86           4
    30       95           0
    31        4           0
    31       26           2
    31       33           2
    31       52           1
    31       61           3
    31       66           0
    31       74           4
    31       77           4
    31       83           2
    31       86           1
    31       88           0
    32        2           0
    32       15           0
    32       23           1
    32       31           0
    32       34           0
    32       37           3
    32       58           4
    32       69           3
    32       71           2
    32       88           0
    32       95           4
    33        3           4
    33        6           0
    33       11           4
    33       15           0
    33       59           4
    33       60           2
    33       66           2
    33       67           2
    33       69           3
    33       72           1
    33       77           0
    33       80           2
    33       86           2
    34       17           3
    34       22           0
    34       37           2
    34       44           0
    34       50           3
    34       51           4
    34       53           2
    34       66           4
    34       75           1
    34       79           4
    34       81           3
    35       18           2
    35       55           1
    35       65           1
    35       75           4
    35       77           1
    35       82           2
    35       91           2
    35       93           3
    35       96           2
    35       97           0
    36        3           0
    36       13           1
    36       42           4
    36       45           3
    36       57           1
    36       60           3
    36       97           3
    37       11           4
    37       19           0
    37       24           1
    37       29           2
    37       31           3
    37       42           4
    37       52           2
    37       54           2
    37       70           3
    38        1           4
    38       14           3
    38       17           0
    38       28           4
    38       53           4
    38       55           0
    38       73           2
    38       74           1
    38       94           2
    38       96           0
    38       99           4
    38      100           2
    39       10           0
    39       13           2
    39       15           1
    39       33           3
    39       37           3
    39       42           2
    39       62           1
    39       81           2
    39       95           1
    40       27           4
    40       29           0
    40       32           4
    40       40           0
    40       41           4
    40       58           4
    40       74           3
    40       80           2
    40       81           3
    40       82           4
    40       84           0
    41        8           1
    41       10           1
    41       21           1
    41       45           2
    41       48           0
    41       52           2
    41       56           0
    41       70           0
    41       75           0
    41       80           2
    41       84           0
    41       90           2
    41       94           4
    41       98           4
    42        5           4
    42       10           4
    42       19           4
    42       27           4
    42       30           3
    42       42           4
    42       53           4
    42       83           3
    42       86           0
    42       98           3
    43       11           4
    43       19           2
    43       37           1
    43       55           1
    43       61           3
    43       62           0
    43       89           1
    43       93           0
    44       23           0
    44       27           2
    44       41           2
    44       50           1
    44       96           2
    45        4           2
    45        5           3
    45        6           1
    45       13           1
    45       32           1
    45       38           3
    45       53           2
    45       92           3
    45       97           3
    46        3           3
    46       19           3
    46       49           3
    46       57           3
    46       91           1
    46       95           3
    46       98           3
    47       11           3
    47       16           4
    47       18           0
    47       31           0
    47       54           1
    47       63           0
    47       64           2
    47       78           4
    47       82           2
    47       83           1
    47       95           0
    48       10           2
    48       12           3
    48       14           1
    48       22           2
    48       35           3
    48       36           4
    48       39           3
    48       55           4
    48       71           4
    48       73           2
    48       82           1
    48       89           1
    49        2           3
    49        3           2
    49        5           3
    49        9           1
    49       13           4
    49       23           2
    49       43           4
    49       54           4
    49       82           0
    50       12           4
    50       13           0
    50       32           0
    50       37           1
    50       41           1
    50       42           2
    50       43           4
    50      100           4
    51        1           0
    51       29           1
    51       46           4
    51       59           4
    51       71           3
    51       83           1
    51       89           2
    52       13           2
    52       22           1
    52       23           3
    52       25           4
    52       29           3
    52       40           2
    52       43           1
    52       64           4
    52       80           3
    52       91           4
    53        4           2
    53        5           1
    53       14           1
    53       36           0
    53       49           2
    53       80           0
    54        8           1
    54       18           3
    54       39           2
    54       76           2
    54       81           1
    54       93           1
    54       96           0
    55       14           0
    55       23           0
    55       25           3
    55       28           2
    55       33           4
    55       34           0
    55       36           2
    55       44           2
    55       48           2
    55       51           2
    55       64           0
    55      100           2
    56       19           1
    56       21           3
    56       24           1
    56       45           1
    56       61           1
    56       82           0
    56       99           2
    57        5           1
    57        7           1
    57       33           1
    57       34           3
    57       39           0
    57       43           3
    57       79           2
    57       90           1
    58        9           2
    58       17           2
    58       23           4
    58       43           2
    58       62           2
    58       64           0
    58       69           2
    58       85           2
    59       39           4
    59       52           1
    59       60           4
    59       73           3
    59       92           4
    60       25           0
    60       26           1
    60       61           2
    60       64           4
    60       76           1
    60       78           0
    60       93           2
    60       97           4
    61        1           0
    61        2           0
    61       31           1
    61       49           0
    61       50           1
    61       60           0
    61       67           4
    61       71           0
    61       73           2
    61       77           0
    61       79           4
    61       86           0
    61       97           2
    62        6           2
    62       15           3
    62       16           4
    62       21           3
    62       31           0
    62       35           1
    62       69           0
    62       77           1
    62       98           1
    63        7           4
    63       11           1
    63       16           3
    63       27           2
    63       69           4
    63       76           2
    63       89           2
    63       91           3
    63       94           3
    64        6           4
    64       35           4
    64       47           0
    64       48           1
    64       50           4
    64       58           3
    64       62           2
    64       63           1
    64       68           4
    64       70           4
    64       82           4
    64       93           4
    64       94           1
    65        8           4
    65        9           3
    65       28           1
    65       37           3
    65       41           3
    65       62           1
    65       66           4
    65       78           1
    65       79           1
    65       90           1
    65       95           0
    66        5           0
    66       13           2
    66       18           3
    66       19           0
    66       44           1
    66       51           1
    66       55           0
    66       59           1
    66       60           1
    66       63           3
    66       65           2
    66       77           1
    66       95           4
    66      100           1
    67        2           1
    67        9           0
    67       10           1
    67       12           4
    67       23           0
    67       28           2
    67       35           0
    67       47           2
    67       49           1
    67       53           2
    67       54           0
    67       57           1
    67       62           2
    68        7           3
    68       16           1
    68       20           0
    68       30           4
    68       34           1
    68       60           4
    68       62           2
    68       68           4
    68       78           1
    69        7           0
    69       11           0
    69       22           0
    69       25           3
    69       26           4
    69       56           1
    69       66           4
    69       72           1
    69       74           1
    69       85           2
    69       92           2
    69       99           3
    70       26           2
    70       27           1
    70       43           3
    70       47           3
    70       50           4
    70       57           2
    70       75           0
    70       96           1
    71       22           0
    71       24           3
    71       29           3
    71       31           0
    71       32           3
    71       51           0
    71       57           1
    71       61           4
    71       83           4
    71       87           1
    71       88           1
    71       92           4
    71       98           3
    72       27           2
    72       29           1
    72       42           2
    72       45           0
    72       50           4
    72       68           2
    72       69           4
    72       71           2
    72       87           0
    72       90           4
    72       98           3
    73        6           2
    73       22           0
    73       27           0
    73       39           0
    73       42           1
    73       48           1
    73       54           3
    73       56           2
    73       59           4
    73       63           0
    73       65           3
    73       85           2
    73       88           0
    74        8           3
    74       38           4
    74       43           2
    74       44           4
    74       56           3
    74       86           3
    75        1           0
    75       24           0
    75       31           0
    75       47           0
    75       48           3
    75       49           4
    75       55           3
    75       59           1
    75       69           1
    75       72           2
    76       20           1
    76       50           3
    76       71           1
    76       97           2
    77        3           0
    77       20           2
    77       24           0
    77       26           2
    77       42           4
    77       59           1
    77       66           0
    77       67           1
    77       71           3
    77       76           3
    77       84           3
    77       86           2
    78        8           0
    78       11           0
    78       12           2
    78       18           2
    78       21           3
    78       22           4
    78       28           0
    78       34           2
    78       38           2
    78       40           2
    78       44           0
    78       52           4
    78       58           2
    78       59           1
    78       64           3
    78       67           2
    78       79           4
    78       83           2
    78       85           2
    78       90           1
    78       97           4
    79        4           3
    79       12           1
    79       24           4
    79       40           2
    79       67           2
    79       73           2
    79       77           4
    79       80           3
    79       89           0
    79       99           1
    80        9           4
    80       29           0
    80       54           4
    80       57           0
    80       67           4
    80       84           2
    80       87           2
    80       89           2
    80       92           4
    80       96           3
    81       10           3
    81       14           4
    81       19           4
    81       30           4
    81       59           3
    81       70           2
    81       76           4
    81       82           1
    81       90           2
    82        4           4
    82       15           1
    82       21           0
    82       37           2
    82       49           0
    82       66           2
    82       72           2
    82      100           1
    83        5           2
    83        8           0
    83       24           3
    83       28           0
    83       38           1
    83       54           2
    83       59           2
    83       69           2
    83       72           3
    83       75           4
    83       80           4
    83       81           3
    83       93           2
    83       94           1
    83       97           3
    84        7           4
    84       34           3
    84       35           4
    84       45           1
    84       48           2
    84       63           4
    84       69           0
    84       72           2
    84       75           4
    84       85           1
    84       92           0
    84       94           2
    85        3           3
    85       14           0
    85       26           2
    85       30           1
    85       53           1
    85       66           3
    85       67           0
    85       73           3
    85       92           4
    86        6           1
    86        7           4
    86       16           0
    86       22           1
    86       27           4
    86       32           1
    86       38           4
    86       40           4
    86       44           1
    86       74           0
    86       81           2
    86       94           0
    87        2           1
    87       16           1
    87       22           4
    87       25           0
    87       29           1
    87       43           2
    87       46           0
    87       47           4
    87       70           4
    87       77           4
    87       97           2
    87      100           4
    88       12           4
    88       14           4
    88       18           2
    88       24           0
    88       34           3
    88       63           2
    88       82           4
    88       84           1
    88       87           2
    88       91           2
    88       99           4
    89        2           2
    89        5           0
    89        7           2
    89       16           2
    89       18           1
    89       39           0
    89       46           1
    89       49           2
    89       66           2
    89       90           1
    89       93           3
    90        1           1
    90       15           3
    90       16           4
    90       19           0
    90       33           3
    90       36           1
    90       41           0
    90       48           4
    90       53           4
    90       88           4
    91        1           4
    91       16           1
    91       18           0
    91       36           4
    91       56           1
    91       58           0
    91       72           0
    91       74           2
    91       76           4
    91       91           3
    92        3           0
    92        7           0
    92       14           4
    92       20           4
    92       23           3
    92       31           0
    92       79           2
    92       83           4
    92       84           0
    92       93           4
    92       94           1
    92       99           2
    93        3           2
    93        8           4
    93       17           1
    93       25           0
    93       26           4
    93       51           0
    93       82           1
    93       83           0
    93       89           2
    94        1           2
    94       17           2
    94       33           1
    94       44           1
    94       52           2
    94       56           3
    94       78           3
    95        4           2
    95        9           0
    95       10           3
    95       19           2
    95       35           4
    95       36           2
    95       52           1
    95       78           2
    95       81           4
    95       85           4
    95       87           3
    95       90           4
    96       12           2
    96       38           2
    96       40           3
    96       47           0
    96       79           0
    96       81           1
    97        3           1
    97       44           2
    97       56           1
    97       60           1
    97       79           4
    97       91           0
    97       93           3
    98        5           0
    98        9           1
    98       12           3
    98       56           3
    98       62           2
    99       21           2
    99       25           4
    99       32           3
    99       46           4
    99       54           3
    99       65           4
    99       70           2
    99       88           4
    99       90           4
    99       94           1
   100        9           3
   100       12           4
   100       22           3
   100       28           2
   100       34           4
   100       61           2
   100       78           1
   100       84           2
   100       88           3
